Reading model...
...model read.
creating competitive generators file...
...competitive generators recorded.
Loading data...
.. real-time data read.
Compiling instance...
...instance created.
Creating Offer Mitigation (model will solve as dispatch if TRUE)...
NOTE: storage offers will not be mitigated
...storage offer mitigation file created
Converting model to MPEC...
...converted
NOTE: initial MIP solve with only storage competitive to get feasible solution
Solving...

Welcome to IBM(R) ILOG(R) CPLEX(R) Interactive Optimizer 12.9.0.0
  with Simplex, Mixed Integer & Barrier Optimizers
5725-A06 5725-A29 5724-Y48 5724-Y49 5724-Y54 5724-Y55 5655-Y21
Copyright IBM Corp. 1988, 2019.  All Rights Reserved.

Type 'help' for a list of available commands.
Type 'help' followed by a command name for more
information on commands.

CPLEX> Logfile 'cplex.log' closed.
Logfile 'C:\Users\llavin\Desktop\test85\logs\tmpvm97bm1a.cplex.log' open.
CPLEX> New value for parallel optimization mode: -1
CPLEX> New value for mixed integer optimality gap tolerance: 0.05
CPLEX> New value for deterministic time limit in ticks: 100000
CPLEX> Problem 'C:\Users\llavin\Desktop\test85\logs\tmp15gs_2sn.pyomo.lp' read.
Read time = 0.52 sec. (27.87 ticks)
CPLEX> Problem name         : C:\Users\llavin\Desktop\test85\logs\tmp15gs_2sn.pyomo.lp
Objective sense      : Maximize
Variables            :  107779  [Nneg: 1,  Box: 44054,  Free: 8928,
                                 Binary: 54796]
Objective nonzeros   :   19154
Linear constraints   :  246995  [Less: 82866,  Greater: 118424,  Equal: 45705]
  Nonzeros           :  582461
  RHS nonzeros       :  136272

Variables            : Min LB: -5000.000        Max UB: 1000000.       
Objective nonzeros   : Min   : 0.1944444        Max   : 2500.000       
Linear constraints   :
  Nonzeros           : Min   : 0.1944444        Max   : 1000000.       
  RHS nonzeros       : Min   : 0.1944444        Max   : 1000000.       
CPLEX> CPXPARAM_Parallel                                -1
CPXPARAM_DetTimeLimit                            100000
CPXPARAM_MIP_Tolerances_MIPGap                   0.050000000000000003
Tried aggregator 3 times.
MIP Presolve eliminated 172858 rows and 33827 columns.
MIP Presolve added 7776 rows and 0 columns.
MIP Presolve modified 51968 coefficients.
Aggregator did 26183 substitutions.
Reduced MIP has 55730 rows, 47385 columns, and 152174 nonzeros.
Reduced MIP has 18814 binaries, 0 generals, 0 SOSs, and 0 indicators.
Presolve time = 0.59 sec. (339.59 ticks)
Probing fixed 849 vars, tightened 8535 bounds.
Probing time = 0.45 sec. (15.95 ticks)
Tried aggregator 2 times.
MIP Presolve eliminated 1960 rows and 1727 columns.
MIP Presolve modified 7139 coefficients.
Aggregator did 54 substitutions.
Reduced MIP has 53716 rows, 45604 columns, and 146260 nonzeros.
Reduced MIP has 17961 binaries, 0 generals, 0 SOSs, and 0 indicators.
Presolve time = 0.30 sec. (267.61 ticks)
Probing fixed 10 vars, tightened 196 bounds.
Probing time = 0.63 sec. (19.88 ticks)
Clique table members: 91965.
MIP emphasis: balance optimality and feasibility.
MIP search method: dynamic search.
Parallel mode: opportunistic, using up to 32 threads.
Root relaxation solution time = 1.14 sec. (2117.30 ticks)

        Nodes                                         Cuts/
   Node  Left     Objective  IInf  Best Integer    Best Bound    ItCnt     Gap

      0     0      -39.6336     2                    -39.6336     9200         
*     0+    0                          -39.6336      -39.6336             0.00%
      0     0        cutoff            -39.6336      -39.6336     9200    0.00%
Elapsed time = 3.91 sec. (3264.59 ticks, tree = 0.01 MB, solutions = 1)

Root node processing (before b&c):
  Real time             =    3.94 sec. (3268.58 ticks)
Parallel b&c, 32 threads:
  Real time             =    0.00 sec. (0.00 ticks)
  Sync time (average)   =    0.00 sec.
  Wait time (average)   =    0.00 sec.
                          ------------
Total (root+branch&cut) =    3.94 sec. (3268.58 ticks)

Solution pool: 1 solution saved.

MIP - Integer optimal solution:  Objective = -3.9633575294e+01
Solution time =    3.97 sec.  Iterations = 9200  Nodes = 0
Deterministic time = 3268.89 ticks  (823.81 ticks/sec)

CPLEX> Incumbent solution written to file 'C:\Users\llavin\Desktop\test85\logs\tmpussc80fj.cplex.sol'.
CPLEX> NOTE: no warmstart specified for MIP iteration, default behavior is true
NOTE: resolving with all competitive generators using storage-only solution to warmstart
Solving...

Welcome to IBM(R) ILOG(R) CPLEX(R) Interactive Optimizer 12.9.0.0
  with Simplex, Mixed Integer & Barrier Optimizers
5725-A06 5725-A29 5724-Y48 5724-Y49 5724-Y54 5724-Y55 5655-Y21
Copyright IBM Corp. 1988, 2019.  All Rights Reserved.

Type 'help' for a list of available commands.
Type 'help' followed by a command name for more
information on commands.

CPLEX> Logfile 'cplex.log' closed.
Logfile 'C:\Users\llavin\Desktop\test85\logs\tmpkvokspvf.cplex.log' open.
CPLEX> New value for parallel optimization mode: -1
CPLEX> New value for mixed integer optimality gap tolerance: 0.05
CPLEX> New value for deterministic time limit in ticks: 100000
CPLEX> Problem 'C:\Users\llavin\Desktop\test85\logs\tmpkf54pf_f.pyomo.lp' read.
Read time = 0.53 sec. (27.92 ticks)
CPLEX> MIP start file 'C:\Users\llavin\Desktop\test85\logs\tmpfdgkemsu.cplex.mst' read.
CPLEX> Problem name         : C:\Users\llavin\Desktop\test85\logs\tmpkf54pf_f.pyomo.lp
Objective sense      : Maximize
Variables            :  109219  [Nneg: 1,  Box: 45494,  Free: 8928,
                                 Binary: 54796]
Objective nonzeros   :   20546
Linear constraints   :  246995  [Less: 82866,  Greater: 118424,  Equal: 45705]
  Nonzeros           :  582461
  RHS nonzeros       :  136272

Variables            : Min LB: -5000.000        Max UB: 1000000.       
Objective nonzeros   : Min   : 0.1944444        Max   : 2500.000       
Linear constraints   :
  Nonzeros           : Min   : 0.1944444        Max   : 1000000.       
  RHS nonzeros       : Min   : 0.1944444        Max   : 1000000.       
CPLEX> CPXPARAM_Parallel                                -1
CPXPARAM_DetTimeLimit                            100000
CPXPARAM_MIP_Tolerances_MIPGap                   0.050000000000000003
1 of 1 MIP starts provided solutions.
MIP start 'm1' defined initial solution with objective -39.6336.
Tried aggregator 3 times.
MIP Presolve eliminated 172858 rows and 35267 columns.
MIP Presolve added 7776 rows and 0 columns.
MIP Presolve modified 51968 coefficients.
Aggregator did 26183 substitutions.
Reduced MIP has 55730 rows, 47385 columns, and 152174 nonzeros.
Reduced MIP has 18814 binaries, 0 generals, 0 SOSs, and 0 indicators.
Presolve time = 0.61 sec. (340.32 ticks)
Probing fixed 849 vars, tightened 8535 bounds.
Probing time = 0.44 sec. (15.95 ticks)
Tried aggregator 2 times.
MIP Presolve eliminated 1960 rows and 1727 columns.
MIP Presolve modified 7139 coefficients.
Aggregator did 54 substitutions.
Reduced MIP has 53716 rows, 45604 columns, and 146260 nonzeros.
Reduced MIP has 17961 binaries, 0 generals, 0 SOSs, and 0 indicators.
Presolve time = 0.30 sec. (267.62 ticks)
Probing fixed 10 vars, tightened 181 bounds.
Probing time = 0.66 sec. (20.01 ticks)
Clique table members: 91874.
MIP emphasis: balance optimality and feasibility.
MIP search method: dynamic search.
Parallel mode: opportunistic, using up to 32 threads.
Root relaxation solution time = 0.58 sec. (421.54 ticks)

        Nodes                                         Cuts/
   Node  Left     Objective  IInf  Best Integer    Best Bound    ItCnt     Gap

*     0+    0                          -39.6336   1.02901e+07              --- 
      0     0        cutoff            -39.6336                   9644     --- 

Root node processing (before b&c):
  Real time             =    3.44 sec. (1633.14 ticks)
Parallel b&c, 32 threads:
  Real time             =    0.00 sec. (0.00 ticks)
  Sync time (average)   =    0.00 sec.
  Wait time (average)   =    0.00 sec.
                          ------------
Total (root+branch&cut) =    3.44 sec. (1633.14 ticks)

Solution pool: 1 solution saved.

MIP - Integer optimal solution:  Objective = -3.9633575294e+01
Solution time =    3.45 sec.  Iterations = 9644  Nodes = 0
Deterministic time = 1633.45 ticks  (473.05 ticks/sec)

CPLEX> Incumbent solution written to file 'C:\Users\llavin\Desktop\test85\logs\tmpmh_7a3ur.cplex.sol'.
CPLEX> Exporting results... 
